
  32    1
  10

   0   0   8 2 3 4 5 6 7 8 10 
   3   7   6 17 15 14 12 11 9 
   9   8   5 25 18 16 15 13 
   5   7   5 22 20 17 16 15 
   3   3   5 25 22 16 15 13 
   8  10   4 25 16 15 13 
  10   7   4 31 20 18 15 
   9  10   2 22 9 
   5   4   4 31 26 25 13 
  10   6   3 22 19 13 
   6   6   3 31 20 18 
   3  10   6 31 30 25 24 23 21 
   4   6   4 30 24 21 20 
   5   7   4 31 24 21 20 
   6  10   3 26 24 19 
   5   9   4 31 30 23 21 
   2   8   4 31 25 23 21 
   9  10   3 30 22 21 
   2   9   2 23 21 
   1   5   3 29 28 23 
   1  10   3 29 28 27 
   3   9   2 29 27 
   8   7   1 27 
   2  10   1 27 
   7  10   1 28 
   3  10   1 28 
   7  10   1 32
   6  10   1 32
   1   8   1 32
   7   6   1 32
   7   8   1 32
   0   0   0 
